NAME: berlin52-16-3
TYPE: TSP
COMMENT: min_cost = 5281.50
DIMENSION: 16
EDGE_WEIGHT_TYPE: EUC_2D
NODE_COORD_SECTION
1 660 180
2 875 920
3 685 610
4 560 365
5 595 360
6 480 415
7 835 625
8 830 610
9 650 1130
10 700 500
11 1740 245
12 770 610
13 475 960
14 880 660
15 25 230
16 1150 1160
EOF
